c Generated map
c Size: 9 * 9, weights in range: 1 to 10, walls: True, with ratio 0.1
c dim 2 of 8
c
p sp 81 117
c graph contains 81 nodes and 117 arcs
c
a 1 10 1
a 10 1 1
a 1 2 4
a 2 1 4
a 2 11 7
a 11 2 7
a 2 3 8
a 3 2 8
a 3 12 2
a 12 3 2
a 3 4 5
a 4 3 5
a 4 13 8
a 13 4 8
a 4 5 7
a 5 4 7
a 5 14 5
a 14 5 5
a 5 6 7
a 6 5 7
a 6 15 1
a 15 6 1
a 6 7 6
a 7 6 6
a 9 18 5
a 18 9 5
a 10 19 1
a 19 10 1
a 10 11 4
a 11 10 4
a 11 20 8
a 20 11 8
a 11 12 7
a 12 11 7
a 12 21 3
a 21 12 3
a 12 13 8
a 13 12 8
a 13 22 4
a 22 13 4
a 13 14 8
a 14 13 8
a 14 23 8
a 23 14 8
a 14 15 1
a 15 14 1
a 15 24 1
a 24 15 1
a 18 27 10
a 27 18 10
a 19 28 8
a 28 19 8
a 19 20 1
a 20 19 1
a 20 29 3
a 29 20 3
a 20 21 3
a 21 20 3
a 21 30 4
a 30 21 4
a 21 22 5
a 22 21 5
a 22 31 5
a 31 22 5
a 22 23 1
a 23 22 1
a 23 32 9
a 32 23 9
a 23 24 3
a 24 23 3
a 24 33 1
a 33 24 1
a 24 25 5
a 25 24 5
a 25 34 9
a 34 25 9
a 25 26 10
a 26 25 10
a 26 35 4
a 35 26 4
a 26 27 3
a 27 26 3
a 28 37 1
a 37 28 1
a 28 29 3
a 29 28 3
a 29 38 4
a 38 29 4
a 29 30 3
a 30 29 3
a 30 39 4
a 39 30 4
a 30 31 1
a 31 30 1
a 31 40 6
a 40 31 6
a 31 32 7
a 32 31 7
a 32 41 6
a 41 32 6
a 32 33 6
a 33 32 6
a 33 42 7
a 42 33 7
a 33 34 2
a 34 33 2
a 34 43 8
a 43 34 8
a 34 35 9
a 35 34 9
a 35 44 2
a 44 35 2
a 37 46 6
a 46 37 6
a 37 38 7
a 38 37 7
a 38 47 4
a 47 38 4
a 38 39 6
a 39 38 6
a 39 48 2
a 48 39 2
a 39 40 1
a 40 39 1
a 40 49 5
a 49 40 5
a 40 41 10
a 41 40 10
a 41 50 1
a 50 41 1
a 41 42 2
a 42 41 2
a 42 51 10
a 51 42 10
a 42 43 10
a 43 42 10
a 43 52 7
a 52 43 7
a 43 44 2
a 44 43 2
a 44 53 8
a 53 44 8
a 44 45 4
a 45 44 4
a 45 54 9
a 54 45 9
a 46 55 9
a 55 46 9
a 46 47 1
a 47 46 1
a 47 56 2
a 56 47 2
a 47 48 10
a 48 47 10
a 48 57 5
a 57 48 5
a 48 49 8
a 49 48 8
a 49 50 8
a 50 49 8
a 50 59 7
a 59 50 7
a 50 51 9
a 51 50 9
a 51 60 4
a 60 51 4
a 51 52 2
a 52 51 2
a 52 61 9
a 61 52 9
a 52 53 4
a 53 52 4
a 53 62 10
a 62 53 10
a 53 54 1
a 54 53 1
a 54 63 6
a 63 54 6
a 55 64 9
a 64 55 9
a 55 56 6
a 56 55 6
a 56 65 6
a 65 56 6
a 56 57 3
a 57 56 3
a 57 66 10
a 66 57 10
a 59 60 8
a 60 59 8
a 60 69 8
a 69 60 8
a 60 61 10
a 61 60 10
a 61 70 7
a 70 61 7
a 61 62 8
a 62 61 8
a 62 63 6
a 63 62 6
a 63 72 5
a 72 63 5
a 64 73 2
a 73 64 2
a 64 65 2
a 65 64 2
a 65 66 2
a 66 65 2
a 66 75 3
a 75 66 3
a 66 67 10
a 67 66 10
a 67 76 2
a 76 67 2
a 69 78 2
a 78 69 2
a 69 70 10
a 70 69 10
a 70 79 7
a 79 70 7
a 72 81 2
a 81 72 2
a 75 76 7
a 76 75 7
a 76 77 8
a 77 76 8
a 77 78 9
a 78 77 9
a 78 79 7
a 79 78 7
a 79 80 5
a 80 79 5
a 80 81 10
a 81 80 10
